# Solution for model risk
# Objective value = -176875
y#0#0 0
y#1#0 1
y#2#0 1
y#3#0 0
x$AAPL#1#_1#0@f 0
x$AAPL#2#_1#0@2d 0
x$AAPL#3#_1#0@4b 0
x$NVDA#1#_1#0@69 0
x$NVDA#2#_1#0@87 0
x$NVDA#3#_1#0@a5 0
x$MSFT#1#_1#0@c3 0
x$MSFT#2#_1#0@e1 0
x$MSFT#3#_1#0@ff 0
x$GOOG#1#_1#@11d 0
x$GOOG#2#_1#@13b 0
x$GOOG#3#_1#@159 0
x$GOOGL#1#_1@177 0
x$GOOGL#2#_1@195 0
x$GOOGL#3#_1@1b3 0
x$AMZN#1#_1#@1d1 0
x$AMZN#2#_1#@1ef 0
x$AMZN#3#_1#@20d 0
x$META#1#_1#@22b 0
x$META#2#_1#@249 0
x$META#3#_1#@267 0
x$TSLA#1#_1#@285 0
x$TSLA#2#_1#@2a3 0
x$TSLA#3#_1#@2c1 0
x$AVGO#1#_1#@2df 0
x$AVGO#2#_1#@2fd 0
x$AVGO#3#_1#@31b 0
x$WMT#1#_1#0@339 0
x$WMT#2#_1#0@357 0
x$WMT#3#_1#0@375 0
y#0#1 0
y#1#1 1
y#2#1 0
y#3#1 1
x$AAPL#1#_1#1@10 0
x$AAPL#2#_1#1@2e 1
x$AAPL#3#_1#1@4c 1
x$NVDA#1#_1#1@6a 0
x$NVDA#2#_1#1@88 0
x$NVDA#3#_1#1@a6 0
x$MSFT#1#_1#1@c4 0
x$MSFT#2#_1#1@e2 0
x$MSFT#3#_1#@100 0
x$GOOG#1#_1#@11e 0
x$GOOG#2#_1#@13c 0
x$GOOG#3#_1#@15a 0
x$GOOGL#1#_1@178 0
x$GOOGL#2#_1@196 0
x$GOOGL#3#_1@1b4 0
x$AMZN#1#_1#@1d2 0
x$AMZN#2#_1#@1f0 0
x$AMZN#3#_1#@20e 0
x$META#1#_1#@22c 0
x$META#2#_1#@24a 0
x$META#3#_1#@268 0
x$TSLA#1#_1#@286 0
x$TSLA#2#_1#@2a4 0
x$TSLA#3#_1#@2c2 0
x$AVGO#1#_1#@2e0 0
x$AVGO#2#_1#@2fe 0
x$AVGO#3#_1#@31c 0
x$WMT#1#_1#1@33a 0
x$WMT#2#_1#1@358 0
x$WMT#3#_1#1@376 0
y#0#2 0
y#1#2 0
y#2#2 1
y#3#2 1
x$AAPL#1#_1#2@11 0
x$AAPL#2#_1#2@2f 1
x$AAPL#3#_1#2@4d 0
x$NVDA#1#_1#2@6b 0
x$NVDA#2#_1#2@89 0
x$NVDA#3#_1#2@a7 0
x$MSFT#1#_1#2@c5 0
x$MSFT#2#_1#2@e3 0
x$MSFT#3#_1#@101 0
x$GOOG#1#_1#@11f 0
x$GOOG#2#_1#@13d 0
x$GOOG#3#_1#@15b 0
x$GOOGL#1#_1@179 0
x$GOOGL#2#_1@197 0
x$GOOGL#3#_1@1b5 0
x$AMZN#1#_1#@1d3 0
x$AMZN#2#_1#@1f1 0
x$AMZN#3#_1#@20f 0
x$META#1#_1#@22d 0
x$META#2#_1#@24b 0
x$META#3#_1#@269 0
x$TSLA#1#_1#@287 0
x$TSLA#2#_1#@2a5 0
x$TSLA#3#_1#@2c3 0
x$AVGO#1#_1#@2e1 0
x$AVGO#2#_1#@2ff 0
x$AVGO#3#_1#@31d 0
x$WMT#1#_1#2@33b 0
x$WMT#2#_1#2@359 1
x$WMT#3#_1#2@377 1
y#0#3 0
y#1#3 0
y#2#3 0
y#3#3 1
x$AAPL#1#_1#3@12 0
x$AAPL#2#_1#3@30 1
x$AAPL#3#_1#3@4e 0
x$NVDA#1#_1#3@6c 0
x$NVDA#2#_1#3@8a 0
x$NVDA#3#_1#3@a8 0
x$MSFT#1#_1#3@c6 0
x$MSFT#2#_1#3@e4 0
x$MSFT#3#_1#@102 0
x$GOOG#1#_1#@120 0
x$GOOG#2#_1#@13e 0
x$GOOG#3#_1#@15c 0
x$GOOGL#1#_1@17a 0
x$GOOGL#2#_1@198 0
x$GOOGL#3#_1@1b6 0
x$AMZN#1#_1#@1d4 0
x$AMZN#2#_1#@1f2 0
x$AMZN#3#_1#@210 0
x$META#1#_1#@22e 0
x$META#2#_1#@24c 0
x$META#3#_1#@26a 0
x$TSLA#1#_1#@288 0
x$TSLA#2#_1#@2a6 0
x$TSLA#3#_1#@2c4 0
x$AVGO#1#_1#@2e2 0
x$AVGO#2#_1#@300 0
x$AVGO#3#_1#@31e 0
x$WMT#1#_1#3@33c 0
x$WMT#2#_1#3@35a 0
x$WMT#3#_1#3@378 0
y#0#4 0
y#1#4 0
y#2#4 0
y#3#4 1
x$AAPL#1#_1#4@13 0
x$AAPL#2#_1#4@31 0
x$AAPL#3#_1#4@4f 0
x$NVDA#1#_1#4@6d 0
x$NVDA#2#_1#4@8b 0
x$NVDA#3#_1#4@a9 0
x$MSFT#1#_1#4@c7 0
x$MSFT#2#_1#4@e5 0
x$MSFT#3#_1#@103 0
x$GOOG#1#_1#@121 0
x$GOOG#2#_1#@13f 0
x$GOOG#3#_1#@15d 0
x$GOOGL#1#_1@17b 0
x$GOOGL#2#_1@199 0
x$GOOGL#3#_1@1b7 0
x$AMZN#1#_1#@1d5 0
x$AMZN#2#_1#@1f3 0
x$AMZN#3#_1#@211 0
x$META#1#_1#@22f 0
x$META#2#_1#@24d 0
x$META#3#_1#@26b 0
x$TSLA#1#_1#@289 0
x$TSLA#2#_1#@2a7 1
x$TSLA#3#_1#@2c5 0
x$AVGO#1#_1#@2e3 0
x$AVGO#2#_1#@301 0
x$AVGO#3#_1#@31f 0
x$WMT#1#_1#4@33d 0
x$WMT#2#_1#4@35b 0
x$WMT#3#_1#4@379 0
y#0#5 0
y#1#5 0
y#2#5 0
y#3#5 1
x$AAPL#1#_1#5@14 1
x$AAPL#2#_1#5@32 0
x$AAPL#3#_1#5@50 0
x$NVDA#1#_1#5@6e 0
x$NVDA#2#_1#5@8c 0
x$NVDA#3#_1#5@aa 0
x$MSFT#1#_1#5@c8 0
x$MSFT#2#_1#5@e6 0
x$MSFT#3#_1#@104 0
x$GOOG#1#_1#@122 0
x$GOOG#2#_1#@140 0
x$GOOG#3#_1#@15e 0
x$GOOGL#1#_1@17c 0
x$GOOGL#2#_1@19a 0
x$GOOGL#3#_1@1b8 0
x$AMZN#1#_1#@1d6 0
x$AMZN#2#_1#@1f4 0
x$AMZN#3#_1#@212 0
x$META#1#_1#@230 0
x$META#2#_1#@24e 0
x$META#3#_1#@26c 0
x$TSLA#1#_1#@28a 0
x$TSLA#2#_1#@2a8 0
x$TSLA#3#_1#@2c6 0
x$AVGO#1#_1#@2e4 0
x$AVGO#2#_1#@302 0
x$AVGO#3#_1#@320 0
x$WMT#1#_1#5@33e 0
x$WMT#2#_1#5@35c 0
x$WMT#3#_1#5@37a 0
y#0#6 0
y#1#6 1
y#2#6 1
y#3#6 0
x$AAPL#1#_1#6@15 0
x$AAPL#2#_1#6@33 0
x$AAPL#3#_1#6@51 0
x$NVDA#1#_1#6@6f 0
x$NVDA#2#_1#6@8d 0
x$NVDA#3#_1#6@ab 0
x$MSFT#1#_1#6@c9 0
x$MSFT#2#_1#6@e7 0
x$MSFT#3#_1#@105 0
x$GOOG#1#_1#@123 0
x$GOOG#2#_1#@141 0
x$GOOG#3#_1#@15f 0
x$GOOGL#1#_1@17d 0
x$GOOGL#2#_1@19b 0
x$GOOGL#3#_1@1b9 0
x$AMZN#1#_1#@1d7 0
x$AMZN#2#_1#@1f5 0
x$AMZN#3#_1#@213 0
x$META#1#_1#@231 0
x$META#2#_1#@24f 0
x$META#3#_1#@26d 0
x$TSLA#1#_1#@28b 0
x$TSLA#2#_1#@2a9 0
x$TSLA#3#_1#@2c7 0
x$AVGO#1#_1#@2e5 0
x$AVGO#2#_1#@303 0
x$AVGO#3#_1#@321 0
x$WMT#1#_1#6@33f 0
x$WMT#2#_1#6@35d 0
x$WMT#3#_1#6@37b 0
y#0#7 0
y#1#7 1
y#2#7 1
y#3#7 1
x$AAPL#1#_1#7@16 1
x$AAPL#2#_1#7@34 1
x$AAPL#3#_1#7@52 1
x$NVDA#1#_1#7@70 0
x$NVDA#2#_1#7@8e 0
x$NVDA#3#_1#7@ac 0
x$MSFT#1#_1#7@ca 0
x$MSFT#2#_1#7@e8 0
x$MSFT#3#_1#@106 0
x$GOOG#1#_1#@124 0
x$GOOG#2#_1#@142 0
x$GOOG#3#_1#@160 0
x$GOOGL#1#_1@17e 0
x$GOOGL#2#_1@19c 0
x$GOOGL#3#_1@1ba 0
x$AMZN#1#_1#@1d8 0
x$AMZN#2#_1#@1f6 1
x$AMZN#3#_1#@214 0
x$META#1#_1#@232 0
x$META#2#_1#@250 0
x$META#3#_1#@26e 0
x$TSLA#1#_1#@28c 0
x$TSLA#2#_1#@2aa 0
x$TSLA#3#_1#@2c8 0
x$AVGO#1#_1#@2e6 0
x$AVGO#2#_1#@304 0
x$AVGO#3#_1#@322 0
x$WMT#1#_1#7@340 0
x$WMT#2#_1#7@35e 0
x$WMT#3#_1#7@37c 0
y#0#8 0
y#1#8 0
y#2#8 1
y#3#8 1
x$AAPL#1#_1#8@17 1
x$AAPL#2#_1#8@35 1
x$AAPL#3#_1#8@53 1
x$NVDA#1#_1#8@71 0
x$NVDA#2#_1#8@8f 0
x$NVDA#3#_1#8@ad 0
x$MSFT#1#_1#8@cb 0
x$MSFT#2#_1#8@e9 0
x$MSFT#3#_1#@107 0
x$GOOG#1#_1#@125 0
x$GOOG#2#_1#@143 0
x$GOOG#3#_1#@161 0
x$GOOGL#1#_1@17f 0
x$GOOGL#2#_1@19d 0
x$GOOGL#3#_1@1bb 0
x$AMZN#1#_1#@1d9 0
x$AMZN#2#_1#@1f7 0
x$AMZN#3#_1#@215 0
x$META#1#_1#@233 0
x$META#2#_1#@251 0
x$META#3#_1#@26f 0
x$TSLA#1#_1#@28d 0
x$TSLA#2#_1#@2ab 0
x$TSLA#3#_1#@2c9 0
x$AVGO#1#_1#@2e7 0
x$AVGO#2#_1#@305 0
x$AVGO#3#_1#@323 0
x$WMT#1#_1#8@341 0
x$WMT#2#_1#8@35f 0
x$WMT#3#_1#8@37d 0
y#0#9 0
y#1#9 0
y#2#9 1
y#3#9 1
x$AAPL#1#_1#9@18 0
x$AAPL#2#_1#9@36 0
x$AAPL#3#_1#9@54 0
x$NVDA#1#_1#9@72 0
x$NVDA#2#_1#9@90 0
x$NVDA#3#_1#9@ae 0
x$MSFT#1#_1#9@cc 0
x$MSFT#2#_1#9@ea 0
x$MSFT#3#_1#@108 0
x$GOOG#1#_1#@126 0
x$GOOG#2#_1#@144 0
x$GOOG#3#_1#@162 0
x$GOOGL#1#_1@180 0
x$GOOGL#2#_1@19e 0
x$GOOGL#3#_1@1bc 0
x$AMZN#1#_1#@1da 0
x$AMZN#2#_1#@1f8 0
x$AMZN#3#_1#@216 0
x$META#1#_1#@234 0
x$META#2#_1#@252 0
x$META#3#_1#@270 0
x$TSLA#1#_1#@28e 1
x$TSLA#2#_1#@2ac 1
x$TSLA#3#_1#@2ca 1
x$AVGO#1#_1#@2e8 0
x$AVGO#2#_1#@306 0
x$AVGO#3#_1#@324 0
x$WMT#1#_1#9@342 0
x$WMT#2#_1#9@360 0
x$WMT#3#_1#9@37e 0
y#0#10 0
y#1#10 1
y#2#10 1
y#3#10 1
x$AAPL#1#_1#1@19 0
x$AAPL#2#_1#1@37 0
x$AAPL#3#_1#1@55 0
x$NVDA#1#_1#1@73 0
x$NVDA#2#_1#1@91 0
x$NVDA#3#_1#1@af 0
x$MSFT#1#_1#1@cd 0
x$MSFT#2#_1#1@eb 0
x$MSFT#3#_1#@109 0
x$GOOG#1#_1#@127 0
x$GOOG#2#_1#@145 0
x$GOOG#3#_1#@163 0
x$GOOGL#1#_1@181 0
x$GOOGL#2#_1@19f 0
x$GOOGL#3#_1@1bd 0
x$AMZN#1#_1#@1db 0
x$AMZN#2#_1#@1f9 0
x$AMZN#3#_1#@217 0
x$META#1#_1#@235 1
x$META#2#_1#@253 0
x$META#3#_1#@271 1
x$TSLA#1#_1#@28f 0
x$TSLA#2#_1#@2ad 1
x$TSLA#3#_1#@2cb 1
x$AVGO#1#_1#@2e9 0
x$AVGO#2#_1#@307 0
x$AVGO#3#_1#@325 0
x$WMT#1#_1#1@343 0
x$WMT#2#_1#1@361 0
x$WMT#3#_1#1@37f 0
y#0#11 0
y#1#11 0
y#2#11 1
y#3#11 1
x$AAPL#1#_1#1@1a 0
x$AAPL#2#_1#1@38 0
x$AAPL#3#_1#1@56 0
x$NVDA#1#_1#1@74 0
x$NVDA#2#_1#1@92 0
x$NVDA#3#_1#1@b0 0
x$MSFT#1#_1#1@ce 0
x$MSFT#2#_1#1@ec 0
x$MSFT#3#_1#@10a 0
x$GOOG#1#_1#@128 0
x$GOOG#2#_1#@146 0
x$GOOG#3#_1#@164 0
x$GOOGL#1#_1@182 0
x$GOOGL#2#_1@1a0 0
x$GOOGL#3#_1@1be 0
x$AMZN#1#_1#@1dc 0
x$AMZN#2#_1#@1fa 0
x$AMZN#3#_1#@218 0
x$META#1#_1#@236 0
x$META#2#_1#@254 0
x$META#3#_1#@272 0
x$TSLA#1#_1#@290 1
x$TSLA#2#_1#@2ae 1
x$TSLA#3#_1#@2cc 1
x$AVGO#1#_1#@2ea 0
x$AVGO#2#_1#@308 0
x$AVGO#3#_1#@326 0
x$WMT#1#_1#1@344 0
x$WMT#2#_1#1@362 0
x$WMT#3#_1#1@380 0
y#0#12 0
y#1#12 1
y#2#12 1
y#3#12 0
x$AAPL#1#_1#1@1b 0
x$AAPL#2#_1#1@39 0
x$AAPL#3#_1#1@57 0
x$NVDA#1#_1#1@75 0
x$NVDA#2#_1#1@93 0
x$NVDA#3#_1#1@b1 0
x$MSFT#1#_1#1@cf 0
x$MSFT#2#_1#1@ed 0
x$MSFT#3#_1#@10b 0
x$GOOG#1#_1#@129 0
x$GOOG#2#_1#@147 0
x$GOOG#3#_1#@165 0
x$GOOGL#1#_1@183 0
x$GOOGL#2#_1@1a1 0
x$GOOGL#3#_1@1bf 0
x$AMZN#1#_1#@1dd 0
x$AMZN#2#_1#@1fb 0
x$AMZN#3#_1#@219 0
x$META#1#_1#@237 0
x$META#2#_1#@255 0
x$META#3#_1#@273 0
x$TSLA#1#_1#@291 0
x$TSLA#2#_1#@2af 0
x$TSLA#3#_1#@2cd 0
x$AVGO#1#_1#@2eb 0
x$AVGO#2#_1#@309 0
x$AVGO#3#_1#@327 0
x$WMT#1#_1#1@345 0
x$WMT#2#_1#1@363 0
x$WMT#3#_1#1@381 0
y#0#13 0
y#1#13 1
y#2#13 1
y#3#13 1
x$AAPL#1#_1#1@1c 0
x$AAPL#2#_1#1@3a 0
x$AAPL#3#_1#1@58 0
x$NVDA#1#_1#1@76 1
x$NVDA#2#_1#1@94 0
x$NVDA#3#_1#1@b2 0
x$MSFT#1#_1#1@d0 0
x$MSFT#2#_1#1@ee 0
x$MSFT#3#_1#@10c 0
x$GOOG#1#_1#@12a 0
x$GOOG#2#_1#@148 0
x$GOOG#3#_1#@166 0
x$GOOGL#1#_1@184 0
x$GOOGL#2#_1@1a2 0
x$GOOGL#3#_1@1c0 0
x$AMZN#1#_1#@1de 0
x$AMZN#2#_1#@1fc 0
x$AMZN#3#_1#@21a 0
x$META#1#_1#@238 1
x$META#2#_1#@256 1
x$META#3#_1#@274 1
x$TSLA#1#_1#@292 0
x$TSLA#2#_1#@2b0 0
x$TSLA#3#_1#@2ce 0
x$AVGO#1#_1#@2ec 0
x$AVGO#2#_1#@30a 0
x$AVGO#3#_1#@328 0
x$WMT#1#_1#1@346 0
x$WMT#2#_1#1@364 0
x$WMT#3#_1#1@382 0
y#0#14 0
y#1#14 1
y#2#14 0
y#3#14 1
x$AAPL#1#_1#1@1d 0
x$AAPL#2#_1#1@3b 0
x$AAPL#3#_1#1@59 0
x$NVDA#1#_1#1@77 0
x$NVDA#2#_1#1@95 0
x$NVDA#3#_1#1@b3 0
x$MSFT#1#_1#1@d1 0
x$MSFT#2#_1#1@ef 0
x$MSFT#3#_1#@10d 0
x$GOOG#1#_1#@12b 0
x$GOOG#2#_1#@149 0
x$GOOG#3#_1#@167 0
x$GOOGL#1#_1@185 0
x$GOOGL#2#_1@1a3 0
x$GOOGL#3#_1@1c1 0
x$AMZN#1#_1#@1df 0
x$AMZN#2#_1#@1fd 0
x$AMZN#3#_1#@21b 0
x$META#1#_1#@239 0
x$META#2#_1#@257 0
x$META#3#_1#@275 0
x$TSLA#1#_1#@293 0
x$TSLA#2#_1#@2b1 0
x$TSLA#3#_1#@2cf 0
x$AVGO#1#_1#@2ed 0
x$AVGO#2#_1#@30b 0
x$AVGO#3#_1#@329 0
x$WMT#1#_1#1@347 0
x$WMT#2#_1#1@365 0
x$WMT#3#_1#1@383 0
x$AAPL#1#1#1 0
x$AAPL#1#1#0 0
x$AAPL#2#1#1 0
x$AAPL#2#1#0 0
x$AAPL#3#1#1 0
x$AAPL#3#1#0 0
x$NVDA#1#1#1 1
x$NVDA#1#1#0 1
x$NVDA#2#1#1 0
x$NVDA#2#1#0 1
x$NVDA#3#1#1 1
x$NVDA#3#1#0 1
x$MSFT#1#1#1 0
x$MSFT#1#1#0 0
x$MSFT#2#1#1 0
x$MSFT#2#1#0 0
x$MSFT#3#1#1 0
x$MSFT#3#1#0 0
x$GOOG#1#1#1 0
x$GOOG#1#1#0 0
x$GOOG#2#1#1 0
x$GOOG#2#1#0 0
x$GOOG#3#1#1 0
x$GOOG#3#1#0 0
x$GOOGL#1#1#1 0
x$GOOGL#1#1#0 0
x$GOOGL#2#1#1 0
x$GOOGL#2#1#0 0
x$GOOGL#3#1#1 0
x$GOOGL#3#1#0 0
x$AMZN#1#1#1 0
x$AMZN#1#1#0 0
x$AMZN#2#1#1 0
x$AMZN#2#1#0 0
x$AMZN#3#1#1 0
x$AMZN#3#1#0 0
x$META#1#1#1 0
x$META#1#1#0 0
x$META#2#1#1 0
x$META#2#1#0 0
x$META#3#1#1 0
x$META#3#1#0 0
x$TSLA#1#1#1 0
x$TSLA#1#1#0 0
x$TSLA#2#1#1 0
x$TSLA#2#1#0 0
x$TSLA#3#1#1 0
x$TSLA#3#1#0 0
x$AVGO#1#1#1 0
x$AVGO#1#1#0 0
x$AVGO#2#1#1 0
x$AVGO#2#1#0 1
x$AVGO#3#1#1 0
x$AVGO#3#1#0 0
x$WMT#1#1#1 0
x$WMT#1#1#0 0
x$WMT#2#1#1 0
x$WMT#2#1#0 0
x$WMT#3#1#1 0
x$WMT#3#1#0 0
x$AAPL#1#1#2 0
x$AAPL#2#1#2 0
x$AAPL#3#1#2 0
x$NVDA#1#1#2 0
x$NVDA#2#1#2 0
x$NVDA#3#1#2 1
x$MSFT#1#1#2 0
x$MSFT#2#1#2 0
x$MSFT#3#1#2 0
x$GOOG#1#1#2 0
x$GOOG#2#1#2 0
x$GOOG#3#1#2 0
x$GOOGL#1#1#2 0
x$GOOGL#2#1#2 0
x$GOOGL#3#1#2 0
x$AMZN#1#1#2 0
x$AMZN#2#1#2 0
x$AMZN#3#1#2 0
x$META#1#1#2 0
x$META#2#1#2 0
x$META#3#1#2 0
x$TSLA#1#1#2 0
x$TSLA#2#1#2 0
x$TSLA#3#1#2 0
x$AVGO#1#1#2 0
x$AVGO#2#1#2 0
x$AVGO#3#1#2 0
x$WMT#1#1#2 0
x$WMT#2#1#2 0
x$WMT#3#1#2 0
x$AAPL#1#1#3 0
x$AAPL#2#1#3 0
x$AAPL#3#1#3 0
x$NVDA#1#1#3 0
x$NVDA#2#1#3 0
x$NVDA#3#1#3 0
x$MSFT#1#1#3 0
x$MSFT#2#1#3 0
x$MSFT#3#1#3 0
x$GOOG#1#1#3 0
x$GOOG#2#1#3 0
x$GOOG#3#1#3 0
x$GOOGL#1#1#3 0
x$GOOGL#2#1#3 0
x$GOOGL#3#1#3 0
x$AMZN#1#1#3 1
x$AMZN#2#1#3 1
x$AMZN#3#1#3 1
x$META#1#1#3 0
x$META#2#1#3 0
x$META#3#1#3 0
x$TSLA#1#1#3 0
x$TSLA#2#1#3 0
x$TSLA#3#1#3 0
x$AVGO#1#1#3 0
x$AVGO#2#1#3 0
x$AVGO#3#1#3 0
x$WMT#1#1#3 0
x$WMT#2#1#3 0
x$WMT#3#1#3 0
x$AAPL#1#1#4 0
x$AAPL#2#1#4 0
x$AAPL#3#1#4 0
x$NVDA#1#1#4 1
x$NVDA#2#1#4 1
x$NVDA#3#1#4 0
x$MSFT#1#1#4 0
x$MSFT#2#1#4 0
x$MSFT#3#1#4 0
x$GOOG#1#1#4 0
x$GOOG#2#1#4 0
x$GOOG#3#1#4 0
x$GOOGL#1#1#4 0
x$GOOGL#2#1#4 0
x$GOOGL#3#1#4 0
x$AMZN#1#1#4 0
x$AMZN#2#1#4 0
x$AMZN#3#1#4 0
x$META#1#1#4 1
x$META#2#1#4 0
x$META#3#1#4 0
x$TSLA#1#1#4 0
x$TSLA#2#1#4 0
x$TSLA#3#1#4 0
x$AVGO#1#1#4 0
x$AVGO#2#1#4 0
x$AVGO#3#1#4 0
x$WMT#1#1#4 0
x$WMT#2#1#4 0
x$WMT#3#1#4 0
x$AAPL#1#1#5 0
x$AAPL#2#1#5 0
x$AAPL#3#1#5 0
x$NVDA#1#1#5 1
x$NVDA#2#1#5 1
x$NVDA#3#1#5 0
x$MSFT#1#1#5 0
x$MSFT#2#1#5 0
x$MSFT#3#1#5 0
x$GOOG#1#1#5 0
x$GOOG#2#1#5 0
x$GOOG#3#1#5 0
x$GOOGL#1#1#5 0
x$GOOGL#2#1#5 0
x$GOOGL#3#1#5 0
x$AMZN#1#1#5 0
x$AMZN#2#1#5 0
x$AMZN#3#1#5 0
x$META#1#1#5 1
x$META#2#1#5 0
x$META#3#1#5 0
x$TSLA#1#1#5 0
x$TSLA#2#1#5 0
x$TSLA#3#1#5 0
x$AVGO#1#1#5 0
x$AVGO#2#1#5 0
x$AVGO#3#1#5 0
x$WMT#1#1#5 0
x$WMT#2#1#5 0
x$WMT#3#1#5 0
x$AAPL#1#1#6 0
x$AAPL#2#1#6 0
x$AAPL#3#1#6 0
x$NVDA#1#1#6 0
x$NVDA#2#1#6 0
x$NVDA#3#1#6 0
x$MSFT#1#1#6 0
x$MSFT#2#1#6 0
x$MSFT#3#1#6 0
x$GOOG#1#1#6 1
x$GOOG#2#1#6 1
x$GOOG#3#1#6 1
x$GOOGL#1#1#6 0
x$GOOGL#2#1#6 0
x$GOOGL#3#1#6 0
x$AMZN#1#1#6 0
x$AMZN#2#1#6 0
x$AMZN#3#1#6 0
x$META#1#1#6 1
x$META#2#1#6 0
x$META#3#1#6 0
x$TSLA#1#1#6 0
x$TSLA#2#1#6 0
x$TSLA#3#1#6 0
x$AVGO#1#1#6 0
x$AVGO#2#1#6 0
x$AVGO#3#1#6 0
x$WMT#1#1#6 0
x$WMT#2#1#6 0
x$WMT#3#1#6 0
x$AAPL#1#1#7 0
x$AAPL#2#1#7 0
x$AAPL#3#1#7 0
x$NVDA#1#1#7 0
x$NVDA#2#1#7 0
x$NVDA#3#1#7 0
x$MSFT#1#1#7 0
x$MSFT#2#1#7 0
x$MSFT#3#1#7 0
x$GOOG#1#1#7 0
x$GOOG#2#1#7 0
x$GOOG#3#1#7 0
x$GOOGL#1#1#7 0
x$GOOGL#2#1#7 0
x$GOOGL#3#1#7 0
x$AMZN#1#1#7 0
x$AMZN#2#1#7 0
x$AMZN#3#1#7 0
x$META#1#1#7 0
x$META#2#1#7 0
x$META#3#1#7 0
x$TSLA#1#1#7 0
x$TSLA#2#1#7 0
x$TSLA#3#1#7 0
x$AVGO#1#1#7 0
x$AVGO#2#1#7 0
x$AVGO#3#1#7 0
x$WMT#1#1#7 0
x$WMT#2#1#7 0
x$WMT#3#1#7 0
x$AAPL#1#1#8 0
x$AAPL#2#1#8 0
x$AAPL#3#1#8 0
x$NVDA#1#1#8 1
x$NVDA#2#1#8 0
x$NVDA#3#1#8 0
x$MSFT#1#1#8 0
x$MSFT#2#1#8 0
x$MSFT#3#1#8 0
x$GOOG#1#1#8 0
x$GOOG#2#1#8 0
x$GOOG#3#1#8 0
x$GOOGL#1#1#8 0
x$GOOGL#2#1#8 0
x$GOOGL#3#1#8 0
x$AMZN#1#1#8 0
x$AMZN#2#1#8 0
x$AMZN#3#1#8 0
x$META#1#1#8 0
x$META#2#1#8 0
x$META#3#1#8 0
x$TSLA#1#1#8 0
x$TSLA#2#1#8 0
x$TSLA#3#1#8 0
x$AVGO#1#1#8 0
x$AVGO#2#1#8 0
x$AVGO#3#1#8 0
x$WMT#1#1#8 0
x$WMT#2#1#8 0
x$WMT#3#1#8 0
x$AAPL#1#1#9 0
x$AAPL#2#1#9 0
x$AAPL#3#1#9 0
x$NVDA#1#1#9 1
x$NVDA#2#1#9 0
x$NVDA#3#1#9 0
x$MSFT#1#1#9 0
x$MSFT#2#1#9 0
x$MSFT#3#1#9 0
x$GOOG#1#1#9 0
x$GOOG#2#1#9 0
x$GOOG#3#1#9 0
x$GOOGL#1#1#9 0
x$GOOGL#2#1#9 0
x$GOOGL#3#1#9 0
x$AMZN#1#1#9 0
x$AMZN#2#1#9 0
x$AMZN#3#1#9 0
x$META#1#1#9 0
x$META#2#1#9 0
x$META#3#1#9 0
x$TSLA#1#1#9 0
x$TSLA#2#1#9 0
x$TSLA#3#1#9 0
x$AVGO#1#1#9 0
x$AVGO#2#1#9 0
x$AVGO#3#1#9 0
x$WMT#1#1#9 0
x$WMT#2#1#9 0
x$WMT#3#1#9 0
x$AAPL#1#1#10 0
x$AAPL#2#1#10 0
x$AAPL#3#1#10 0
x$NVDA#1#1#10 0
x$NVDA#2#1#10 0
x$NVDA#3#1#10 0
x$MSFT#1#1#10 0
x$MSFT#2#1#10 0
x$MSFT#3#1#10 0
x$GOOG#1#1#10 0
x$GOOG#2#1#10 0
x$GOOG#3#1#10 0
x$GOOGL#1#1#10 0
x$GOOGL#2#1#10 0
x$GOOGL#3#1#10 0
x$AMZN#1#1#10 0
x$AMZN#2#1#10 0
x$AMZN#3#1#10 0
x$META#1#1#10 0
x$META#2#1#10 0
x$META#3#1#10 0
x$TSLA#1#1#10 0
x$TSLA#2#1#10 0
x$TSLA#3#1#10 0
x$AVGO#1#1#10 0
x$AVGO#2#1#10 0
x$AVGO#3#1#10 0
x$WMT#1#1#10 0
x$WMT#2#1#10 0
x$WMT#3#1#10 0
x$AAPL#1#1#11 0
x$AAPL#2#1#11 0
x$AAPL#3#1#11 0
x$NVDA#1#1#11 0
x$NVDA#2#1#11 0
x$NVDA#3#1#11 0
x$MSFT#1#1#11 0
x$MSFT#2#1#11 0
x$MSFT#3#1#11 0
x$GOOG#1#1#11 0
x$GOOG#2#1#11 0
x$GOOG#3#1#11 0
x$GOOGL#1#1#11 0
x$GOOGL#2#1#11 0
x$GOOGL#3#1#11 0
x$AMZN#1#1#11 0
x$AMZN#2#1#11 0
x$AMZN#3#1#11 0
x$META#1#1#11 0
x$META#2#1#11 0
x$META#3#1#11 0
x$TSLA#1#1#11 0
x$TSLA#2#1#11 0
x$TSLA#3#1#11 0
x$AVGO#1#1#11 0
x$AVGO#2#1#11 1
x$AVGO#3#1#11 0
x$WMT#1#1#11 0
x$WMT#2#1#11 0
x$WMT#3#1#11 0
x$AAPL#1#1#12 0
x$AAPL#2#1#12 0
x$AAPL#3#1#12 0
x$NVDA#1#1#12 1
x$NVDA#2#1#12 1
x$NVDA#3#1#12 1
x$MSFT#1#1#12 0
x$MSFT#2#1#12 0
x$MSFT#3#1#12 0
x$GOOG#1#1#12 0
x$GOOG#2#1#12 0
x$GOOG#3#1#12 0
x$GOOGL#1#1#12 0
x$GOOGL#2#1#12 0
x$GOOGL#3#1#12 0
x$AMZN#1#1#12 0
x$AMZN#2#1#12 0
x$AMZN#3#1#12 0
x$META#1#1#12 0
x$META#2#1#12 0
x$META#3#1#12 0
x$TSLA#1#1#12 0
x$TSLA#2#1#12 0
x$TSLA#3#1#12 0
x$AVGO#1#1#12 0
x$AVGO#2#1#12 1
x$AVGO#3#1#12 0
x$WMT#1#1#12 0
x$WMT#2#1#12 0
x$WMT#3#1#12 0
x$AAPL#1#1#13 0
x$AAPL#2#1#13 0
x$AAPL#3#1#13 0
x$NVDA#1#1#13 0
x$NVDA#2#1#13 0
x$NVDA#3#1#13 0
x$MSFT#1#1#13 0
x$MSFT#2#1#13 0
x$MSFT#3#1#13 0
x$GOOG#1#1#13 0
x$GOOG#2#1#13 0
x$GOOG#3#1#13 0
x$GOOGL#1#1#13 0
x$GOOGL#2#1#13 0
x$GOOGL#3#1#13 0
x$AMZN#1#1#13 0
x$AMZN#2#1#13 0
x$AMZN#3#1#13 0
x$META#1#1#13 0
x$META#2#1#13 0
x$META#3#1#13 0
x$TSLA#1#1#13 0
x$TSLA#2#1#13 0
x$TSLA#3#1#13 0
x$AVGO#1#1#13 0
x$AVGO#2#1#13 0
x$AVGO#3#1#13 0
x$WMT#1#1#13 0
x$WMT#2#1#13 0
x$WMT#3#1#13 0
x$AAPL#1#1#14 0
x$AAPL#2#1#14 0
x$AAPL#3#1#14 0
x$NVDA#1#1#14 0
x$NVDA#2#1#14 0
x$NVDA#3#1#14 0
x$MSFT#1#1#14 0
x$MSFT#2#1#14 0
x$MSFT#3#1#14 0
x$GOOG#1#1#14 0
x$GOOG#2#1#14 0
x$GOOG#3#1#14 0
x$GOOGL#1#1#14 0
x$GOOGL#2#1#14 0
x$GOOGL#3#1#14 0
x$AMZN#1#1#14 0
x$AMZN#2#1#14 0
x$AMZN#3#1#14 0
x$META#1#1#14 0
x$META#2#1#14 0
x$META#3#1#14 0
x$TSLA#1#1#14 0
x$TSLA#2#1#14 0
x$TSLA#3#1#14 0
x$AVGO#1#1#14 0
x$AVGO#2#1#14 0
x$AVGO#3#1#14 0
x$WMT#1#1#14 0
x$WMT#2#1#14 0
x$WMT#3#1#14 0
s2#6#0 0
s2#5#0 0
s2#4#0 0
s2#3#0 0
s2#2#0 0
s2#1#0 0
s2#0#0 0
s2#6#1 0
s2#5#1 0
s2#4#1 0
s2#3#1 0
s2#2#1 0
s2#1#1 0
s2#0#1 0
s2#6#2 0
s2#5#2 0
s2#4#2 0
s2#3#2 0
s2#2#2 0
s2#1#2 0
s2#0#2 0
s2#6#3 0
s2#5#3 0
s2#4#3 0
s2#3#3 0
s2#2#3 0
s2#1#3 0
s2#0#3 0
s2#6#4 0
s2#5#4 0
s2#4#4 0
s2#3#4 0
s2#2#4 0
s2#1#4 0
s2#0#4 0
s2#6#5 0
s2#5#5 0
s2#4#5 0
s2#3#5 0
s2#2#5 0
s2#1#5 0
s2#0#5 0
s2#6#6 0
s2#5#6 0
s2#4#6 0
s2#3#6 0
s2#2#6 0
s2#1#6 0
s2#0#6 0
s2#6#7 0
s2#5#7 0
s2#4#7 0
s2#3#7 0
s2#2#7 0
s2#1#7 0
s2#0#7 0
s2#6#8 0
s2#5#8 0
s2#4#8 0
s2#3#8 0
s2#2#8 0
s2#1#8 0
s2#0#8 0
s2#6#9 0
s2#5#9 0
s2#4#9 0
s2#3#9 0
s2#2#9 0
s2#1#9 0
s2#0#9 0
s2#6#10 0
s2#5#10 0
s2#4#10 0
s2#3#10 0
s2#2#10 0
s2#1#10 0
s2#0#10 0
s2#6#11 0
s2#5#11 0
s2#4#11 0
s2#3#11 0
s2#2#11 0
s2#1#11 0
s2#0#11 0
s2#6#12 0
s2#5#12 0
s2#4#12 0
s2#3#12 0
s2#2#12 0
s2#1#12 0
s2#0#12 0
s2#6#13 0
s2#5#13 0
s2#4#13 0
s2#3#13 0
s2#2#13 0
s2#1#13 0
s2#0#13 0
s2#6#14 0
s2#5#14 0
s2#4#14 0
s2#3#14 0
s2#2#14 1
s2#1#14 0
s2#0#14 0
